(set-logic ALL)
(declare-const BAV1 Bool)
(declare-const BAV2 Bool)
(declare-const GEN2 String)
(declare-const GEN1 String)
(set-option :strings-exp true)
(declare-const x String)
(declare-const y String)
(declare-const z String)
(assert (= (str.tolower GEN1) x))
(assert (= x (str.++ y GEN2 z)))
(assert (= BAV1 (= (str.tolower GEN1) x)))
(assert (= BAV2 (= x (str.++ y GEN2 z))))
(check-sat)
(get-model)